
  22   10
  10   10   10   10   10   10   10   10   10   10

   0   0   0   0   0   0   0   0   0   0   0   2 2 4 
   7  10  10  10  10  10  10  10  10  10  10   1 3 
   1  10  10  10  10  10  10  10  10  10  10   3 18 8 5 
   5  10  10  10  10  10  10  10  10  10  10   2 18 6 
  10  10  10  10  10  10  10  10  10  10  10   1 6 
   4  10  10  10  10  10  10  10  10  10  10   1 7 
   7  10  10  10  10  10  10  10  10  10  10   2 16 9 
   7  10  10  10  10  10  10  10  10  10  10   2 16 10 
  10  10  10  10  10  10  10  10  10  10  10   2 21 10 
   7  10  10  10  10  10  10  10  10  10  10   1 11 
  10  10  10  10  10  10  10  10  10  10  10   1 12 
  10  10  10  10  10  10  10  10  10  10  10   1 13 
   5  10  10  10  10  10  10  10  10  10  10   1 14 
   9  10  10  10  10  10  10  10  10  10  10   1 15 
   7  10  10  10  10  10  10  10  10  10  10   2 20 17 
   9  10  10  10  10  10  10  10  10  10  10   2 21 17 
   8  10  10  10  10  10  10  10  10  10  10   1 19 
   8  10  10  10  10  10  10  10  10  10  10   1 19 
   4  10  10  10  10  10  10  10  10  10  10   1 22
   5  10  10  10  10  10  10  10  10  10  10   1 22
  10  10  10  10  10  10  10  10  10  10  10   1 22
   0   0   0   0   0   0   0   0   0   0   0   0 
